1 1 -2 0
1 3 -1 0
1 -3 -4 0
1 -5 -6 0
1 -5 7 0
1 5 8 0
1 5 -4 0
1 -9 -10 0
1 -9 5 0
1 -9 8 0
1 -9 -4 0
1 -10 11 0
1 10 -9 0
1 -10 12 0
1 -10 13 0
1 10 -14 0
1 10 1 0
1 4 -15 0
1 -4 16 0
1 -4 -5 0
1 -4 1 0
1 -7 -17 0
1 7 18 0
1 7 5 0
1 7 -1 0
1 7 8 0
1 -8 -19 0
1 -8 -9 0
1 -8 -20 0
1 8 -1 0
1 14 -6 0
1 14 11 0
1 -14 -18 0
1 14 4 0
1 -11 10 0
1 -11 -14 0
1 11 -4 0
1 -13 -21 0
1 13 22 0
1 13 -10 0
1 13 -23 0
1 24 -10 0
1 -24 -25 0
1 -24 -13 0
1 24 -23 0
1 -24 4 0
1 -25 -24 0
1 25 -26 0
1 25 -5 0
1 6 27 0
1 6 -11 0
1 6 -9 0
1 6 5 0
1 -6 28 0
1 -29 -30 0
1 -29 13 0
1 29 -5 0
1 -31 -32 0
1 -31 33 0
1 -31 -16 0
1 -31 -5 0
1 31 28 0
1 -27 -22 0
1 -27 34 0
1 27 25 0
1 35 -6 0
1 -35 21 0
1 35 -22 0
1 35 36 0
1 -35 25 0
1 -37 -6 0
1 -37 21 0
1 37 35 0
1 -37 25 0
1 37 38 0
1 -23 -27 0
1 -23 39 0
1 -23 -34 0
1 23 -40 0
1 22 37 0
1 -22 39 0
1 -22 34 0
1 22 -13 0
1 -22 23 0
1 38 27 0
1 38 24 0
1 38 21 0
1 -38 -26 0
1 38 35 0
1 38 41 0
1 -21 37 0
1 -21 -27 0
1 -21 -34 0
1 21 38 0
1 -21 -41 0
1 21 -42 0
1 -43 -44 0
1 45 -46 0
1 -45 47 0
1 -48 -49 0
1 48 44 0
1 -48 50 0
1 -48 -46 0
1 48 -45 0
1 -44 -51 0
1 -44 48 0
1 44 -43 0
1 44 18 0
1 -46 -52 0
1 46 -48 0
1 46 53 0
1 46 -20 0
1 -49 -54 0
1 -49 -48 0
1 -50 -49 0
1 -50 -45 0
1 18 -55 0
1 18 56 0
1 19 44 0
1 19 -55 0
1 19 -11 0
1 -19 7 0
1 19 47 0
1 -19 18 0
1 -20 -52 0
1 20 -56 0
1 52 47 0
1 52 44 0
1 -52 -55 0
1 -52 56 0
1 52 57 0
1 56 47 0
1 -56 58 0
1 56 48 0
1 56 36 0
1 -47 -56 0
1 -47 48 0
1 47 18 0
1 47 -45 0
1 -55 -52 0
1 55 -59 0
1 -55 19 0
1 55 60 0
1 55 20 0
1 -55 18 0
1 -55 45 0
1 -60 61 0
1 60 -62 0
1 60 18 0
1 16 56 0
1 16 63 0
1 16 -64 0
1 -16 8 0
1 16 -4 0
1 17 -27 0
1 -17 -56 0
1 -17 57 0
1 17 -7 0
1 -36 12 0
1 36 -64 0
1 -32 -37 0
1 -32 -31 0
1 -32 56 0
1 32 12 0
1 -32 47 0
1 32 65 0
1 -63 26 0
1 -63 -16 0
1 -63 20 0
1 -63 -66 0
1 -63 -42 0
1 -64 -17 0
1 -64 -28 0
1 57 67 0
1 57 -61 0
1 57 68 0
1 65 69 0
1 65 32 0
1 65 -70 0
1 -26 21 0
1 -26 -61 0
1 -26 25 0
1 28 -31 0
1 -28 6 0
1 -28 21 0
1 -28 63 0
1 28 12 0
1 -28 -25 0
1 -28 38 0
1 -71 15 0
1 -71 -12 0
1 -71 -64 0
1 42 -15 0
1 -42 -21 0
1 42 -72 0
1 -12 -15 0
1 -12 73 0
1 12 -71 0
1 -12 -10 0
1 12 -41 0
1 -12 42 0
1 15 32 0
1 15 -73 0
1 -15 74 0
1 15 36 0
1 -15 -75 0
1 -15 76 0
1 -72 73 0
1 -72 -77 0
1 -72 7 0
1 72 -66 0
1 -72 78 0
1 78 32 0
1 78 79 0
1 78 8 0
1 -78 66 0
1 78 -28 0
1 -39 -15 0
1 39 -33 0
1 -39 77 0
1 39 12 0
1 -39 30 0
1 -41 21 0
1 -74 80 0
1 -74 -30 0
1 76 -15 0
1 76 -33 0
1 76 81 0
1 76 82 0
1 76 -12 0
1 83 -80 0
1 -83 84 0
1 -83 -74 0
1 83 76 0
1 80 -74 0
1 -80 85 0
1 -80 -41 0
1 -30 -75 0
1 30 -42 0
1 -33 86 0
1 33 -73 0
1 33 74 0
1 -33 30 0
1 -33 87 0
1 -33 42 0
1 -88 -83 0
1 -88 40 0
1 85 -80 0
1 85 81 0
1 85 83 0
1 -84 86 0
1 -84 -82 0
1 -84 -89 0
1 90 -84 0
1 90 82 0
1 90 87 0
1 90 -89 0
1 90 40 0
1 40 -88 0
1 40 74 0
1 -40 -90 0
1 -82 -22 0
1 -82 88 0
1 82 -74 0
1 82 85 0
1 89 84 0
1 89 -90 0
1 -89 38 0
1 81 84 0
1 -81 -88 0
1 81 89 0
1 61 54 0
1 -61 -55 0
1 -61 56 0
1 61 -26 0
1 61 -53 0
1 -69 53 0
1 -69 -60 0
1 -69 -28 0
1 -67 58 0
1 -67 91 0
1 67 68 0
1 -68 -54 0
1 68 51 0
1 68 67 0
1 -68 -53 0
1 68 65 0
1 53 -77 0
1 -53 -67 0
1 53 61 0
1 53 68 0
1 54 49 0
1 -54 -92 0
1 -92 -61 0
1 92 50 0
1 92 -68 0
1 -77 51 0
1 -77 57 0
1 -77 -63 0
1 -77 -91 0
1 77 -66 0
1 66 -59 0
1 66 -58 0
1 66 -63 0
1 -66 -77 0
1 79 -70 0
1 79 -93 0
1 -79 -94 0
1 -79 -62 0
1 -95 -51 0
1 95 59 0
1 95 -58 0
1 95 93 0
1 -95 94 0
1 95 -72 0
1 95 62 0
1 -95 -70 0
1 -58 -91 0
1 -58 -56 0
1 -58 95 0
1 58 -68 0
1 -91 -73 0
1 -91 79 0
1 -91 -67 0
1 91 75 0
1 -91 66 0
1 91 -68 0
1 62 -66 0
1 -62 -68 0
1 -73 -15 0
1 -73 33 0
1 -73 -91 0
1 73 94 0
1 73 30 0
1 -73 75 0
1 -75 -15 0
1 -75 33 0
1 -75 -58 0
1 -75 -93 0
1 75 72 0
1 -75 91 0
1 75 70 0
1 86 -84 0
1 -86 93 0
1 -86 -30 0
1 87 -58 0
1 -87 91 0
1 87 -96 0
1 94 73 0
1 94 87 0
1 96 -86 0
1 -96 94 0
1 96 -87 0
1 96 -75 0
1 93 -57 0
1 93 79 0
1 -93 75 0
1 -70 73 0
1 70 -65 0
1 70 95 0
